p cnf 16 23
7 5 9 0
-16 1 -12 3 8 11 5 -14 -15 7 -13 -6 10 -9 0
-14 13 -15 0
-12 -5 -7 0
-2 8 -3 5 0
-3 16 0
1 -15 14 -11 0
-13 -5 -8 -15 -1 3 9 -2 -11 -16 0
9 -1 -2 0
-11 -4 12 -7 1 16 -13 6 5 3 -8 9 -15 14 0
-9 -4 3 6 15 -7 -14 13 2 0
9 -10 -11 -5 -13 -7 3 -16 14 8 2 -4 0
-12 -6 15 0
-9 -14 4 3 -10 -2 -16 0
-6 8 12 0
7 -2 5 14 0
14 13 10 -15 -5 8 9 4 1 16 7 0
15 7 0
-5 10 0
-7 16 0
-14 13 -5 7 12 4 -10 16 2 -8 -9 11 -1 -6 -15 0
-9 -6 0
10 3 11 13 -6 0
